(set-logic ALL)
(declare-fun seed0_value2 () String)
(declare-fun seed0_key2 () String)
(assert (and (or (and (and (and (and (and (and (and (and (and (and (= (ite (= (str.len (str.substr seed0_value2 1 (- (str.len seed0_value2) 1))) 0) 1 0) 0) (not (= (ite (= (str.at seed0_value2 0) "\u{9}") 1 0) 0))) (= (ite (= (str.at seed0_value2 0) " ") 1 0) 0)) (= (ite (= (str.len seed0_value2) 0) 1 0) 0)) (not (= (ite (= (str.indexof seed0_value2 "=" 0) (- 1)) 1 0) 0))) (= (ite (not (= (str.indexof seed0_value2 "=" 0) (- 1))) 1 0) 0)) (= (ite (str.contains seed0_value2 ",") 1 0) 0)) (= (ite (= (str.len seed0_value2) 0) 1 0) 0)) (not (= (ite (= seed0_key2 "cache-control") 1 0) 0))) (not (= (ite (= seed0_key2 "cache-control") 1 0) 0))) (>= 1 0)) (str.suffixof (str.++ seed0_value2 "KntxUwP") (str.++ seed0_value2 "rt"))) (or (>= (- (str.len seed0_value2) 1) 0) (not (str.suffixof (str.++ seed0_key2 "O5nIKXE8HA0PDzfe") (str.++ seed0_value2 "AOFskK"))))))
(check-sat)
(exit)